letting n =  10
letting blocks =  [[1, 1], [1, 5], [1, 6], [1, 9], [2, 3], [2, 4], [3, 1], [3, 9], [4, 1], [4, 6], [4, 9], [5, 4], [5, 7], [5, 8], [5, 9], [6, 5], [6, 10], [7, 1], [7, 2], [7, 3], [7, 5], [7, 10], [8, 2], [8, 5], [8, 10], [9, 1], [9, 6], [9, 9], [10, 2], [10, 3], [10, 4], [10, 9]]
